(set-info :smt-lib-version 2.6)
(set-logic UFNIA)
(set-info :source |
Generated by: Geoff Sutcliffe
Generated on: 2026-03-11
Generator: TPTPWorld
Application: Benchmarking automated theorem provers
Time limit: 120.0

These benchmarks are translations from the TPTP Library (Thousands of
Problems for Theorem Provers), see http://www.cs.miami.edu/~tptp/

The TPTP is maintained by Geoff Sutcliffe, and he contributed this
selection of benchmarks to SMT-LIB.  They were exported from the
v9.2.1 realease of TPTP.
|)
(set-info :category "industrial")
(set-info :status unknown)
; SZS status Success
(declare-sort $$unsorted 0)
(declare-sort tptp.uni 0)
(declare-sort tptp.ty 0)
(declare-fun tptp.sort (tptp.ty tptp.uni) Bool)
(declare-fun tptp.witness (tptp.ty) tptp.uni)
(assert (forall ((A tptp.ty)) (tptp.sort A (tptp.witness A))))
(declare-fun tptp.int () tptp.ty)
(declare-fun tptp.real () tptp.ty)
(declare-sort tptp.bool 0)
(declare-fun tptp.bool1 () tptp.ty)
(declare-fun tptp.true () tptp.bool)
(declare-fun tptp.false () tptp.bool)
(declare-fun tptp.match_bool (tptp.ty tptp.bool tptp.uni tptp.uni) tptp.uni)
(assert (forall ((A tptp.ty) (X tptp.bool) (X1 tptp.uni) (X2 tptp.uni)) (tptp.sort A (tptp.match_bool A X X1 X2))))
(assert (forall ((A tptp.ty) (Z tptp.uni) (Z1 tptp.uni)) (=> (tptp.sort A Z) (= (tptp.match_bool A tptp.true Z Z1) Z))))
(assert (forall ((A tptp.ty) (Z tptp.uni) (Z1 tptp.uni)) (=> (tptp.sort A Z1) (= (tptp.match_bool A tptp.false Z Z1) Z1))))
(assert (not (= tptp.true tptp.false)))
(assert (forall ((U tptp.bool)) (or (= U tptp.true) (= U tptp.false))))
(declare-sort tptp.tuple0 0)
(declare-fun tptp.tuple01 () tptp.ty)
(declare-fun tptp.tuple02 () tptp.tuple0)
(assert (forall ((U tptp.tuple0)) (= U tptp.tuple02)))
(declare-fun tptp.qtmark () tptp.ty)
(assert (forall ((X Int) (Y Int) (Z Int)) (=> (<= X Y) (=> (<= 0 Z) (<= (* X Z) (* Y Z))))))
(declare-fun tptp.ref (tptp.ty) tptp.ty)
(declare-fun tptp.mk_ref (tptp.ty tptp.uni) tptp.uni)
(assert (forall ((A tptp.ty) (X tptp.uni)) (tptp.sort (tptp.ref A) (tptp.mk_ref A X))))
(declare-fun tptp.contents (tptp.ty tptp.uni) tptp.uni)
(assert (forall ((A tptp.ty) (X tptp.uni)) (tptp.sort A (tptp.contents A X))))
(assert (forall ((A tptp.ty) (U tptp.uni)) (=> (tptp.sort A U) (= (tptp.contents A (tptp.mk_ref A U)) U))))
(assert (forall ((A tptp.ty) (U tptp.uni)) (=> (tptp.sort (tptp.ref A) U) (= U (tptp.mk_ref A (tptp.contents A U))))))
(declare-fun tptp.map (tptp.ty tptp.ty) tptp.ty)
(declare-fun tptp.get (tptp.ty tptp.ty tptp.uni tptp.uni) tptp.uni)
(assert (forall ((A tptp.ty) (B tptp.ty) (X tptp.uni) (X1 tptp.uni)) (tptp.sort B (tptp.get B A X X1))))
(declare-fun tptp.set (tptp.ty tptp.ty tptp.uni tptp.uni tptp.uni) tptp.uni)
(assert (forall ((A tptp.ty) (B tptp.ty) (X tptp.uni) (X1 tptp.uni) (X2 tptp.uni)) (tptp.sort (tptp.map A B) (tptp.set B A X X1 X2))))
(assert (forall ((A tptp.ty) (B tptp.ty) (M tptp.uni) (A1 tptp.uni) (A2 tptp.uni) (B1 tptp.uni)) (=> (tptp.sort B B1) (=> (= A1 A2) (= (tptp.get B A (tptp.set B A M A1 B1) A2) B1)))))
(assert (forall ((A tptp.ty) (B tptp.ty) (M tptp.uni) (A1 tptp.uni) (A2 tptp.uni)) (=> (tptp.sort A A1) (=> (tptp.sort A A2) (forall ((B1 tptp.uni)) (=> (not (= A1 A2)) (= (tptp.get B A (tptp.set B A M A1 B1) A2) (tptp.get B A M A2))))))))
(declare-fun tptp.const (tptp.ty tptp.ty tptp.uni) tptp.uni)
(assert (forall ((A tptp.ty) (B tptp.ty) (X tptp.uni)) (tptp.sort (tptp.map A B) (tptp.const B A X))))
(assert (forall ((A tptp.ty) (B tptp.ty) (B1 tptp.uni) (A1 tptp.uni)) (=> (tptp.sort B B1) (= (tptp.get B A (tptp.const B A B1) A1) B1))))
(declare-fun tptp.array (tptp.ty) tptp.ty)
(declare-fun tptp.mk_array (tptp.ty Int tptp.uni) tptp.uni)
(assert (forall ((A tptp.ty) (X Int) (X1 tptp.uni)) (tptp.sort (tptp.array A) (tptp.mk_array A X X1))))
(declare-fun tptp.length (tptp.ty tptp.uni) Int)
(assert (forall ((A tptp.ty) (U Int) (U1 tptp.uni)) (= (tptp.length A (tptp.mk_array A U U1)) U)))
(declare-fun tptp.elts (tptp.ty tptp.uni) tptp.uni)
(assert (forall ((A tptp.ty) (X tptp.uni)) (tptp.sort (tptp.map tptp.int A) (tptp.elts A X))))
(assert (forall ((A tptp.ty) (U Int) (U1 tptp.uni)) (=> (tptp.sort (tptp.map tptp.int A) U1) (= (tptp.elts A (tptp.mk_array A U U1)) U1))))
(assert (forall ((A tptp.ty) (U tptp.uni)) (= U (tptp.mk_array A (tptp.length A U) (tptp.elts A U)))))
(declare-fun tptp.get1 (tptp.ty tptp.uni Int) tptp.uni)
(assert (forall ((A tptp.ty) (X tptp.uni) (X1 Int)) (tptp.sort A (tptp.get1 A X X1))))
(declare-fun tptp.t2tb (Int) tptp.uni)
(assert (forall ((X Int)) (tptp.sort tptp.int (tptp.t2tb X))))
(declare-fun tptp.tb2t (tptp.uni) Int)
(assert (forall ((I Int)) (= (tptp.tb2t (tptp.t2tb I)) I)))
(assert (forall ((J tptp.uni)) (= (tptp.t2tb (tptp.tb2t J)) J)))
(assert (forall ((A tptp.ty) (A1 tptp.uni) (I Int)) (= (tptp.get1 A A1 I) (tptp.get A tptp.int (tptp.elts A A1) (tptp.t2tb I)))))
(declare-fun tptp.set1 (tptp.ty tptp.uni Int tptp.uni) tptp.uni)
(assert (forall ((A tptp.ty) (X tptp.uni) (X1 Int) (X2 tptp.uni)) (tptp.sort (tptp.array A) (tptp.set1 A X X1 X2))))
(assert (forall ((A tptp.ty) (A1 tptp.uni) (I Int) (V tptp.uni)) (= (tptp.set1 A A1 I V) (tptp.mk_array A (tptp.length A A1) (tptp.set A tptp.int (tptp.elts A A1) (tptp.t2tb I) V)))))
(declare-fun tptp.make (tptp.ty Int tptp.uni) tptp.uni)
(assert (forall ((A tptp.ty) (X Int) (X1 tptp.uni)) (tptp.sort (tptp.array A) (tptp.make A X X1))))
(assert (forall ((A tptp.ty) (N Int) (V tptp.uni)) (= (tptp.make A N V) (tptp.mk_array A N (tptp.const A tptp.int V)))))
(declare-sort tptp.array_int 0)
(declare-fun tptp.is_partition (tptp.array_int) Bool)
(declare-fun tptp.t2tb1 (tptp.array_int) tptp.uni)
(assert (forall ((X tptp.array_int)) (tptp.sort (tptp.array tptp.int) (tptp.t2tb1 X))))
(declare-fun tptp.tb2t1 (tptp.uni) tptp.array_int)
(assert (forall ((I tptp.array_int)) (= (tptp.tb2t1 (tptp.t2tb1 I)) I)))
(assert (forall ((J tptp.uni)) (= (tptp.t2tb1 (tptp.tb2t1 J)) J)))
(assert (forall ((A tptp.array_int)) (let ((_let_1 (tptp.is_partition A))) (let ((_let_2 (tptp.t2tb1 A))) (let ((_let_3 (tptp.length tptp.int _let_2))) (let ((_let_4 (= (tptp.tb2t (tptp.get1 tptp.int _let_2 (- _let_3 1))) 0))) (let ((_let_5 (< 0 _let_3))) (and (=> _let_1 (and _let_5 (forall ((I Int) (J Int)) (let ((_let_1 (tptp.t2tb1 A))) (=> (and (<= 0 I) (<= I J) (< J (tptp.length tptp.int _let_1))) (<= (tptp.tb2t (tptp.get1 tptp.int _let_1 J)) (tptp.tb2t (tptp.get1 tptp.int _let_1 I)))))) _let_4)) (=> (and _let_5 (forall ((I Int) (J Int)) (let ((_let_1 (tptp.t2tb1 A))) (=> (and (<= 0 I) (<= I J) (< J (tptp.length tptp.int _let_1))) (<= (tptp.tb2t (tptp.get1 tptp.int _let_1 J)) (tptp.tb2t (tptp.get1 tptp.int _let_1 I)))))) _let_4) _let_1)))))))))
(declare-fun tptp.numofgt (tptp.array_int Int Int) Bool)
(assert (forall ((A tptp.array_int) (N Int) (V Int)) (let ((_let_1 (tptp.numofgt A N V))) (let ((_let_2 (tptp.t2tb1 A))) (let ((_let_3 (<= (tptp.tb2t (tptp.get1 tptp.int _let_2 N)) V))) (let ((_let_4 (< N (tptp.length tptp.int _let_2)))) (let ((_let_5 (<= 0 N))) (and (=> _let_1 (and _let_5 _let_4 (forall ((J Int)) (=> (and (<= 0 J) (< J N)) (< V (tptp.tb2t (tptp.get1 tptp.int (tptp.t2tb1 A) J))))) _let_3)) (=> (and _let_5 _let_4 (forall ((J Int)) (=> (and (<= 0 J) (< J N)) (< V (tptp.tb2t (tptp.get1 tptp.int (tptp.t2tb1 A) J))))) _let_3) _let_1)))))))))
(declare-fun tptp.is_conjugate (tptp.array_int tptp.array_int) Bool)
(assert (forall ((A tptp.array_int) (B tptp.array_int)) (= (tptp.is_conjugate A B) (and (< (tptp.tb2t (tptp.get1 tptp.int (tptp.t2tb1 A) 0)) (tptp.length tptp.int (tptp.t2tb1 B))) (forall ((J Int)) (let ((_let_1 (tptp.t2tb1 B))) (=> (and (<= 0 J) (< J (tptp.length tptp.int _let_1))) (tptp.numofgt A (tptp.tb2t (tptp.get1 tptp.int _let_1 J)) J))))))))
(declare-sort tptp.map_int_int 0)
(declare-fun tptp.t2tb2 (tptp.map_int_int) tptp.uni)
(assert (forall ((X tptp.map_int_int)) (tptp.sort (tptp.map tptp.int tptp.int) (tptp.t2tb2 X))))
(declare-fun tptp.tb2t2 (tptp.uni) tptp.map_int_int)
(assert (forall ((I tptp.map_int_int)) (= (tptp.tb2t2 (tptp.t2tb2 I)) I)))
(assert (forall ((J tptp.uni)) (= (tptp.t2tb2 (tptp.tb2t2 J)) J)))
(assert (not (forall ((A Int) (A1 tptp.map_int_int)) (let ((_let_1 (< 0 A))) (let ((_let_2 (<= 0 0))) (let ((_let_3 (tptp.t2tb2 A1))) (let ((_let_4 (<= 0 (+ (tptp.tb2t (tptp.get tptp.int tptp.int _let_3 (tptp.t2tb 0))) 1)))) (=> (and (<= 0 A) (tptp.is_partition (tptp.tb2t1 (tptp.mk_array tptp.int A _let_3)))) (and _let_2 _let_1 _let_4 (=> _let_4 (and _let_2 _let_1 (forall ((J Int)) (let ((_let_1 (tptp.t2tb 0))) (let ((_let_2 (tptp.t2tb2 A1))) (let ((_let_3 (tptp.tb2t (tptp.get tptp.int tptp.int _let_2 _let_1)))) (=> (and (<= _let_3 J) (< J (+ _let_3 1))) (tptp.numofgt (tptp.tb2t1 (tptp.mk_array tptp.int A _let_2)) (tptp.tb2t (tptp.get tptp.int tptp.int (tptp.const tptp.int tptp.int _let_1) (tptp.t2tb J))) J)))))) (forall ((Partc Int) (B tptp.map_int_int)) (let ((_let_1 (tptp.t2tb2 A1))) (let ((_let_2 (+ (tptp.tb2t (tptp.get tptp.int tptp.int _let_1 (tptp.t2tb 0))) 1))) (let ((_let_3 (= (tptp.tb2t (tptp.get tptp.int tptp.int _let_1 (tptp.t2tb Partc))) 0))) (let ((_let_4 (not _let_3))) (let ((_let_5 (< Partc A))) (let ((_let_6 (<= 0 Partc))) (=> (and _let_6 _let_5 (forall ((J Int)) (let ((_let_1 (tptp.t2tb2 A1))) (=> (and (<= (tptp.tb2t (tptp.get tptp.int tptp.int _let_1 (tptp.t2tb Partc))) J) (< J (+ (tptp.tb2t (tptp.get tptp.int tptp.int _let_1 (tptp.t2tb 0))) 1))) (tptp.numofgt (tptp.tb2t1 (tptp.mk_array tptp.int A _let_1)) (tptp.tb2t (tptp.get tptp.int tptp.int (tptp.t2tb2 B) (tptp.t2tb J))) J))))) (and _let_6 _let_5 (=> _let_4 (and _let_6 _let_5 (forall ((Partc1 Int)) (=> (= Partc1 (+ Partc 1)) (and (<= Partc Partc1) (< Partc1 A) (forall ((J Int)) (let ((_let_1 (tptp.t2tb2 A1))) (=> (and (<= Partc J) (< J Partc1)) (= (tptp.tb2t (tptp.get tptp.int tptp.int _let_1 (tptp.t2tb J))) (tptp.tb2t (tptp.get tptp.int tptp.int _let_1 (tptp.t2tb Partc))))))) (forall ((Partc2 Int)) (let ((_let_1 (tptp.t2tb2 A1))) (let ((_let_2 (tptp.tb2t (tptp.get tptp.int tptp.int _let_1 (tptp.t2tb Partc))))) (let ((_let_3 (- _let_2 1))) (let ((_let_4 (tptp.tb2t (tptp.get tptp.int tptp.int _let_1 (tptp.t2tb Partc2))))) (let ((_let_5 (- A Partc))) (let ((_let_6 (< Partc2 A))) (let ((_let_7 (<= 0 Partc2))) (let ((_let_8 (= _let_4 _let_2))) (=> (and (<= Partc Partc2) _let_6 (forall ((J Int)) (let ((_let_1 (tptp.t2tb2 A1))) (=> (and (<= Partc J) (< J Partc2)) (= (tptp.tb2t (tptp.get tptp.int tptp.int _let_1 (tptp.t2tb J))) (tptp.tb2t (tptp.get tptp.int tptp.int _let_1 (tptp.t2tb Partc)))))))) (and _let_7 _let_6 (=> _let_8 (forall ((Partc3 Int)) (let ((_let_1 (- A Partc2))) (=> (= Partc3 (+ Partc2 1)) (and (<= Partc Partc3) (< Partc3 A) (forall ((J Int)) (let ((_let_1 (tptp.t2tb2 A1))) (=> (and (<= Partc J) (< J Partc3)) (= (tptp.tb2t (tptp.get tptp.int tptp.int _let_1 (tptp.t2tb J))) (tptp.tb2t (tptp.get tptp.int tptp.int _let_1 (tptp.t2tb Partc))))))) (<= 0 _let_1) (< (- A Partc3) _let_1)))))) (=> (not _let_8) (and _let_7 _let_6 (=> (< _let_3 _let_4) (and _let_7 _let_6 (forall ((J Int)) (let ((_let_1 (tptp.t2tb2 A1))) (=> (and (<= (tptp.tb2t (tptp.get tptp.int tptp.int _let_1 (tptp.t2tb Partc2))) J) (< J (+ (tptp.tb2t (tptp.get tptp.int tptp.int _let_1 (tptp.t2tb 0))) 1))) (tptp.numofgt (tptp.tb2t1 (tptp.mk_array tptp.int A _let_1)) (tptp.tb2t (tptp.get tptp.int tptp.int (tptp.t2tb2 B) (tptp.t2tb J))) J)))) (<= 0 _let_5) (< (- A Partc2) _let_5))) (=> (<= _let_4 _let_3) (and (forall ((J Int)) (let ((_let_1 (tptp.tb2t (tptp.get tptp.int tptp.int (tptp.t2tb2 A1) (tptp.t2tb Partc2))))) (=> (and (<= _let_1 J) (< J _let_1)) (= (tptp.tb2t (tptp.get tptp.int tptp.int (tptp.t2tb2 B) (tptp.t2tb J))) Partc2)))) (forall ((B1 tptp.map_int_int)) (let ((_let_1 (- A Partc))) (and (forall ((I Int)) (let ((_let_1 (tptp.t2tb2 A1))) (let ((_let_2 (+ (tptp.tb2t (tptp.get tptp.int tptp.int _let_1 (tptp.t2tb 0))) 1))) (=> (and (<= (tptp.tb2t (tptp.get tptp.int tptp.int _let_1 (tptp.t2tb Partc2))) I) (<= I (- (tptp.tb2t (tptp.get tptp.int tptp.int _let_1 (tptp.t2tb Partc))) 1))) (=> (and (forall ((J Int)) (let ((_let_1 (tptp.t2tb J))) (let ((_let_2 (tptp.t2tb2 A1))) (=> (and (<= (tptp.tb2t (tptp.get tptp.int tptp.int _let_2 (tptp.t2tb Partc))) J) (< J (+ (tptp.tb2t (tptp.get tptp.int tptp.int _let_2 (tptp.t2tb 0))) 1))) (= (tptp.tb2t (tptp.get tptp.int tptp.int (tptp.t2tb2 B1) _let_1)) (tptp.tb2t (tptp.get tptp.int tptp.int (tptp.t2tb2 B) _let_1))))))) (forall ((J Int)) (=> (and (<= (tptp.tb2t (tptp.get tptp.int tptp.int (tptp.t2tb2 A1) (tptp.t2tb Partc2))) J) (< J I)) (= (tptp.tb2t (tptp.get tptp.int tptp.int (tptp.t2tb2 B1) (tptp.t2tb J))) Partc2)))) (and (<= 0 _let_2) (<= 0 I) (< I _let_2) (forall ((B2 tptp.map_int_int)) (=> (and (<= 0 (+ (tptp.tb2t (tptp.get tptp.int tptp.int (tptp.t2tb2 A1) (tptp.t2tb 0))) 1)) (= B2 (tptp.tb2t2 (tptp.set tptp.int tptp.int (tptp.t2tb2 B1) (tptp.t2tb I) (tptp.t2tb Partc2))))) (and (forall ((J Int)) (let ((_let_1 (tptp.t2tb J))) (let ((_let_2 (tptp.t2tb2 A1))) (=> (and (<= (tptp.tb2t (tptp.get tptp.int tptp.int _let_2 (tptp.t2tb Partc))) J) (< J (+ (tptp.tb2t (tptp.get tptp.int tptp.int _let_2 (tptp.t2tb 0))) 1))) (= (tptp.tb2t (tptp.get tptp.int tptp.int (tptp.t2tb2 B2) _let_1)) (tptp.tb2t (tptp.get tptp.int tptp.int (tptp.t2tb2 B) _let_1))))))) (forall ((J Int)) (=> (and (<= (tptp.tb2t (tptp.get tptp.int tptp.int (tptp.t2tb2 A1) (tptp.t2tb Partc2))) J) (< J (+ I 1))) (= (tptp.tb2t (tptp.get tptp.int tptp.int (tptp.t2tb2 B2) (tptp.t2tb J))) Partc2)))))))))))) (=> (and (forall ((J Int)) (let ((_let_1 (tptp.t2tb J))) (let ((_let_2 (tptp.t2tb2 A1))) (=> (and (<= (tptp.tb2t (tptp.get tptp.int tptp.int _let_2 (tptp.t2tb Partc))) J) (< J (+ (tptp.tb2t (tptp.get tptp.int tptp.int _let_2 (tptp.t2tb 0))) 1))) (= (tptp.tb2t (tptp.get tptp.int tptp.int (tptp.t2tb2 B1) _let_1)) (tptp.tb2t (tptp.get tptp.int tptp.int (tptp.t2tb2 B) _let_1))))))) (forall ((J Int)) (let ((_let_1 (tptp.t2tb2 A1))) (=> (and (<= (tptp.tb2t (tptp.get tptp.int tptp.int _let_1 (tptp.t2tb Partc2))) J) (< J (+ (- (tptp.tb2t (tptp.get tptp.int tptp.int _let_1 (tptp.t2tb Partc))) 1) 1))) (= (tptp.tb2t (tptp.get tptp.int tptp.int (tptp.t2tb2 B1) (tptp.t2tb J))) Partc2))))) (and (<= 0 Partc2) (< Partc2 A) (forall ((J Int)) (let ((_let_1 (tptp.t2tb2 A1))) (=> (and (<= (tptp.tb2t (tptp.get tptp.int tptp.int _let_1 (tptp.t2tb Partc2))) J) (< J (+ (tptp.tb2t (tptp.get tptp.int tptp.int _let_1 (tptp.t2tb 0))) 1))) (tptp.numofgt (tptp.tb2t1 (tptp.mk_array tptp.int A _let_1)) (tptp.tb2t (tptp.get tptp.int tptp.int (tptp.t2tb2 B1) (tptp.t2tb J))) J)))) (<= 0 _let_1) (< (- A Partc2) _let_1)))))))))))))))))))))))))) (=> (not _let_4) (and _let_3 (<= 0 _let_2) (tptp.is_conjugate (tptp.tb2t1 (tptp.mk_array tptp.int A _let_1)) (tptp.tb2t1 (tptp.mk_array tptp.int _let_2 (tptp.t2tb2 B))))))))))))))))))))))))))
(check-sat)
(exit)
